&dos
outdir = './out_gan',
prefix='gan',
fildos='gan.dos',
/
