&bands
outdir = './out_gan',
prefix='gan',
filband='gan.band',
lsym=.true.
/
