#************************************************************************************
#*                   Generated by cif2cell 2.0.0 2022-03-19 11:03                   *
#*  T. Bjorkman, Comp. Phys. Commun. 182, 1183-1186 (2011). Please cite generously. *
#*                                                                                  *
#*                              Data obtained from COD                              *
#*                                    None   ()                                     *
#*             Failed to get author information, No journal information             *
#************************************************************************************

&control
  calculation = 'bands'
  restart_mode = 'from_scratch'
  prefix = 'gan'
  outdir = 'out_gan'
  pseudo_dir = './PP'
/
&system
  ibrav = 4
  a = 3.21374
  c = 5.23521
  nat = 4
  ntyp = 2
  occupations = 'fixed'
  ecutwfc = 80
  ecutrho = 720
  nbnd = 27 ! 18 filled bands , 9 more empty bands
/
&electrons
 conv_thr = 1.00000e-08
 diago_david_ndim = 4
/
K_POINTS {crystal_b}
12
0.0 0.0 0.0 20
0.5 0.0 0.0 20
0.333333333333333 0.333333333333333 0.0 20
0.0 0.0 0.0 20
0.0 0.0 0.5 20
0.5 0.0 0.5 20
0.333333333333333 0.333333333333333 0.5 20
0.0 0.0 0.5 20
0.5 0.0 0.5 20
0.5 0.0 0.0 20
0.333333333333333 0.333333333333333 0.0 20 
0.333333333333333 0.333333333333333 0.5 20 

ATOMIC_SPECIES
  Ga   69.72300  Ga.pbe-dn-kjpaw_psl.1.0.0.UPF
   N   14.00650  N.pbe-n-kjpaw_psl.1.0.0.UPF
ATOMIC_POSITIONS {crystal}
Ga            0.6666680851        0.3333319134        0.0000000000
Ga            0.3333319519        0.6666680855        0.5000260061
N             0.6666925477        0.3333074525        0.3766951515
N             0.3333074513        0.6666925484        0.8767004581
