&projwfc
outdir = './out_gan',
prefix='gan',
degauss=0.01,
/
