#************************************************************************************
#*                   Generated by cif2cell 2.0.0 2022-03-19 11:03                   *
#*  T. Bjorkman, Comp. Phys. Commun. 182, 1183-1186 (2011). Please cite generously. *
#*                                                                                  *
#*                              Data obtained from COD                              *
#*                                    None   ()                                     *
#*             Failed to get author information, No journal information             *
#************************************************************************************

&control
  calculation = 'scf'
  restart_mode = 'from_scratch'
  prefix = 'gan'
  outdir = 'out_gan'
  pseudo_dir = './PP'
/
&system
  ibrav = 4
  a = 3.2153
  c = 5.23899
  nat = 4
  ntyp = 2
  occupations = 'fixed'
  ecutwfc = 50
  ecutrho = 400
  nbnd = 20 ! 18 filled bands , 2 more empty bands
/
&electrons
/
K_POINTS {automatic}
2 2 2 1 1 1
ATOMIC_SPECIES
  Ga   69.72300  Ga.pbe-dn-kjpaw_psl.1.0.0.UPF
   N   14.00650  N.pbe-n-kjpaw_psl.1.0.0.UPF
ATOMIC_POSITIONS {crystal}
Ga            0.6666680851        0.3333319134        0.0000000000
Ga            0.3333319519        0.6666680855        0.5000260061
N             0.6666925477        0.3333074525        0.3766951515
N             0.3333074513        0.6666925484        0.8767004581
