&CONTROL
    calculation = "nscf"
    max_seconds =  8.64000e+04
    restart_mode='from_scratch'
    prefix='qa'
    pseudo_dir  = "/home/shigeki/.burai/.pseudopot"
    outdir = 'out_qa'
/

&SYSTEM
    ibrav = 0
    ! A =    3.19000
    nat = 4
    ntyp = 2
    ecutwfc = 80
    ecutrho = 960
    nbnd = 20 ! 18 filled bands , 2 more empty bands
    input_dft = 'hse'
    nqx1 = 1, nqx2 = 1, nqx3 = 1
    x_gamma_extrapolation = .TRUE.
    exxdiv_treatment = 'gygi-baldereschi'
    occupations  = "tetrahedra"
    smearing     = "gaussian"
/

&ELECTRONS
    conv_thr         =  1.00000e-06
    electron_maxstep = 200
    mixing_beta      =  7.00000e-01
    startingpot      = "atomic"
    startingwfc      = "atomic+random"
/

&DOS
    degauss =  1.00000e-02
    deltae  =  1.00000e-02
    emax    =  5.00000e+01
    emin    = -5.00000e+01
    ngauss  = 0
/

&PROJWFC
    degauss =  1.00000e-02
    deltae  =  1.00000e-02
    emax    =  5.00000e+01
    emin    = -5.00000e+01
    ngauss  = 0
/

K_POINTS {automatic}
 9  9  5  0 0 0
CELL_PARAMETERS {angstrom}
  2.762621038072359  -1.594999999999999   0.000000000000000
  0.000000000000000   3.190000000000000   0.000000000000000
  0.000000000000000   0.000000000000000   5.189000000000000
ATOMIC_SPECIES
Ga     69.72300  Ga.pbe-n-van.UPF
N      14.00674  N.pbe-rrkjus.UPF

ATOMIC_POSITIONS {angstrom}
Ga      1.595016   0.920864   0.000000
Ga      0.000000   1.841729   2.594500
N       1.595016   0.920864   1.945875
N       0.000000   1.841729   4.540375


