#************************************************************************************
#*                   Generated by cif2cell 2.0.0 2022-03-19 11:03                   *
#*  T. Bjorkman, Comp. Phys. Commun. 182, 1183-1186 (2011). Please cite generously. *
#*                                                                                  *
#*                              Data obtained from COD                              *
#*                                    None   ()                                     *
#*             Failed to get author information, No journal information             *
#************************************************************************************

&SYSTEM
  ibrav = 0
  A =    3.11000
  nat = 4
  ntyp = 2
/
CELL_PARAMETERS {angstrom}
  2.693339005769604  -1.554999999999999   0.000000000000000 
  0.000000000000000   3.110000000000000   0.000000000000000 
  0.000000000000000   0.000000000000000   4.980000000000000 
ATOMIC_SPECIES
  Al   26.98100  Al_PSEUDO
   N   14.00650   N_PSEUDO
ATOMIC_POSITIONS {crystal}
Al   0.666666666666667   0.333333333333333   0.000000000000000 
Al   0.333333333333333   0.666666666666667   0.500000000000000 
 N   0.666666666666667   0.333333333333333   0.382000000000000 
 N   0.333333333333333   0.666666666666667   0.882000000000000 
