#************************************************************************************
#*                   Generated by cif2cell 2.0.0 2022-03-19 11:03                   *
#*  T. Bjorkman, Comp. Phys. Commun. 182, 1183-1186 (2011). Please cite generously. *
#*                                                                                  *
#*                              Data obtained from COD                              *
#*                                    None   ()                                     *
#*             Failed to get author information, No journal information             *
#************************************************************************************

&SYSTEM
  ibrav = 0
  A =    7.12000
  nat = 6
  ntyp = 2
/
CELL_PARAMETERS {angstrom}
  3.560000000000000   3.560000000000000   0.000000000000000 
  3.560000000000000   0.000000000000000   3.560000000000000 
  0.000000000000000   3.560000000000000   3.560000000000000 
ATOMIC_SPECIES
  Si   28.08500  Si_PSEUDO
   O   15.99900   O_PSEUDO
ATOMIC_POSITIONS {crystal}
Si   0.000000000000000   0.000000000000000   0.000000000000000 
Si   0.250000000000000   0.250000000000000   0.250000000000000 
 O   0.125000000000000   0.125000000000000   0.125000000000000 
 O   0.125000000000000   0.625000000000000   0.125000000000000 
 O   0.625000000000000   0.125000000000000   0.125000000000000 
 O   0.125000000000000   0.125000000000000   0.625000000000000 
