#************************************************************************************
#*                   Generated by cif2cell 2.0.0 2022-03-19 11:02                   *
#*  T. Bjorkman, Comp. Phys. Commun. 182, 1183-1186 (2011). Please cite generously. *
#*                                                                                  *
#*                              Data obtained from COD                              *
#*                                    None   ()                                     *
#*             Failed to get author information, No journal information             *
#************************************************************************************

&SYSTEM
  ibrav = 0
  A =    4.97170
  nat = 12
  ntyp = 2
/
CELL_PARAMETERS {angstrom}
  4.971700000000000   0.000000000000000   0.000000000000000 
  0.000000000000000   4.971700000000000   0.000000000000000 
  0.000000000000000   0.000000000000000   6.922300000000000 
ATOMIC_SPECIES
   O   15.99900   O_PSEUDO
  Si   28.08500  Si_PSEUDO
ATOMIC_POSITIONS {crystal}
Si   0.300280000000000   0.300280000000000   0.000000000000000 
Si   0.699720000000000   0.699720000000000   0.500000000000000 
Si   0.199720000000000   0.800280000000000   0.250000000000000 
Si   0.800280000000000   0.199720000000000   0.750000000000000 
 O   0.239200000000000   0.104400000000000   0.178700000000000 
 O   0.760800000000000   0.895600000000000   0.678700000000000 
 O   0.895600000000000   0.760800000000000   0.321300000000000 
 O   0.260800000000000   0.604400000000000   0.071300000000000 
 O   0.104400000000000   0.239200000000000   0.821300000000000 
 O   0.739200000000000   0.395600000000000   0.571300000000000 
 O   0.395600000000000   0.739200000000000   0.428700000000000 
 O   0.604400000000000   0.260800000000000   0.928700000000000 
