#************************************************************************************
#*                   Generated by cif2cell 2.0.0 2022-03-19 11:03                   *
#*  T. Bjorkman, Comp. Phys. Commun. 182, 1183-1186 (2011). Please cite generously. *
#*                                                                                  *
#*                              Data obtained from COD                              *
#*                                    None   ()                                     *
#*             Failed to get author information, No journal information             *
#************************************************************************************

&SYSTEM
  ibrav = 0
  A =    3.19000
  nat = 4
  ntyp = 2
/
CELL_PARAMETERS {angstrom}
  2.762621038072359  -1.594999999999999   0.000000000000000 
  0.000000000000000   3.190000000000000   0.000000000000000 
  0.000000000000000   0.000000000000000   5.189000000000000 
ATOMIC_SPECIES
  Ga   69.72300  Ga_PSEUDO
   N   14.00650   N_PSEUDO
ATOMIC_POSITIONS {crystal}
Ga   0.666666666666667   0.333333333333333   0.000000000000000 
Ga   0.333333333333333   0.666666666666667   0.500000000000000 
 N   0.666666666666667   0.333333333333333   0.375000000000000 
 N   0.333333333333333   0.666666666666667   0.875000000000000 
