#************************************************************************************
#*                   Generated by cif2cell 2.0.0 2022-03-19 11:02                   *
#*  T. Bjorkman, Comp. Phys. Commun. 182, 1183-1186 (2011). Please cite generously. *
#*                                                                                  *
#*                              Data obtained from COD                              *
#*                                    None   ()                                     *
#*             Failed to get author information, No journal information             *
#************************************************************************************

&SYSTEM
  ibrav = 0
  A =    5.01300
  nat = 9
  ntyp = 2
/
CELL_PARAMETERS {angstrom}
  4.341385349171391  -2.506499999999999   0.000000000000000 
  0.000000000000000   5.013000000000000   0.000000000000000 
  0.000000000000000   0.000000000000000   5.470000000000000 
ATOMIC_SPECIES
   O   15.99900   O_PSEUDO
  Si   28.08500  Si_PSEUDO
ATOMIC_POSITIONS {crystal}
Si   0.500000000000000   0.500000000000000   0.333333333333333 
Si   0.000000000000000   0.500000000000000   0.666666666666667 
Si   0.500000000000000   0.000000000000000   0.000000000000000 
 O   0.197000000000000   0.803000000000000   0.833333000000000 
 O   0.394000000000000   0.197000000000000   0.166666333333333 
 O   0.606000000000000   0.803000000000000   0.166666333333333 
 O   0.803000000000000   0.606000000000000   0.500000333333333 
 O   0.197000000000000   0.394000000000000   0.500000333333333 
 O   0.803000000000000   0.197000000000000   0.833333000000000 
