#************************************************************************************
#*                   Generated by cif2cell 2.0.0 2022-03-19 10:59                   *
#*  T. Bjorkman, Comp. Phys. Commun. 182, 1183-1186 (2011). Please cite generously. *
#*                                                                                  *
#*                              Data obtained from COD                              *
#*                                    None   ()                                     *
#*             Failed to get author information, No journal information             *
#************************************************************************************

&SYSTEM
  ibrav = 0
  A =    4.91400
  nat = 9
  ntyp = 2
/
CELL_PARAMETERS {angstrom}
  4.255648834196731  -2.456999999999999   0.000000000000000 
  0.000000000000000   4.914000000000000   0.000000000000000 
  0.000000000000000   0.000000000000000   5.406000000000000 
ATOMIC_SPECIES
  Si   28.08500  Si_PSEUDO
   O   15.99900   O_PSEUDO
ATOMIC_POSITIONS {crystal}
Si   0.469900000000000   0.000000000000000   0.333333333333333 
Si   0.530100000000000   0.530100000000000   0.000000000000000 
Si   0.000000000000000   0.469900000000000   0.666666666666667 
 O   0.413000000000000   0.266800000000000   0.214000000000000 
 O   0.587000000000000   0.853800000000000   0.119333333333333 
 O   0.733200000000000   0.146200000000000   0.547333333333333 
 O   0.146200000000000   0.733200000000000   0.452666666666667 
 O   0.266800000000000   0.413000000000000   0.786000000000000 
 O   0.853800000000000   0.587000000000000   0.880666666666667 
