#************************************************************************************
#*                   Generated by cif2cell 2.0.0 2022-03-19 11:04                   *
#*  T. Bjorkman, Comp. Phys. Commun. 182, 1183-1186 (2011). Please cite generously. *
#*                                                                                  *
#*                              Data obtained from COD                              *
#*                                    None   ()                                     *
#*             Failed to get author information, No journal information             *
#************************************************************************************

&SYSTEM
  ibrav = 0
  A =    3.08100
  nat = 12
  ntyp = 2
/
CELL_PARAMETERS {angstrom}
  2.668224269059856  -1.540499999999999   0.000000000000000 
  0.000000000000000   3.081000000000000   0.000000000000000 
  0.000000000000000   0.000000000000000  15.124800000000000 
ATOMIC_SPECIES
   C   12.01060   C_PSEUDO
  Si   28.08500  Si_PSEUDO
ATOMIC_POSITIONS {crystal}
Si   0.000000000000000   0.000000000000000   0.000000000000000 
Si   0.000000000000000   0.000000000000000   0.500000000000000 
Si   0.333333333333333   0.666666666666667   0.166667000000000 
Si   0.666666666666667   0.333333333333333   0.666666666666667 
Si   0.666666666666667   0.333333333333333   0.332900000000000 
Si   0.333333333333333   0.666666666666667   0.832900000000000 
 C   0.333333333333333   0.666666666666667   0.041200000000000 
 C   0.666666666666667   0.333333333333333   0.541200000000000 
 C   0.666666666666667   0.333333333333333   0.208000000000000 
 C   0.333333333333333   0.666666666666667   0.708000000000000 
 C   0.000000000000000   0.000000000000000   0.374600000000000 
 C   0.000000000000000   0.000000000000000   0.874600000000000 
