&control
    calculation='relax' ,
    restart_mode='from_scratch' ,
    prefix='ru-gan' ,
    outdir = './ru-gan/' ,
    wfcdir = './ru-gan/' ,
    pseudo_dir = "/home/shigeki/.burai/.pseudopot" ,
    disk_io='default' ,
    forc_conv_thr= 1.d-4 ,
    etot_conv_thr= 1.d-5 ,
    verbosity = 'high' ,
    nstep = 200 ,
 /
 &system
    ibrav= 4 ,
    a = 6.38 ,
    c = 28.5 ,
    nat =  52 ,
    ntyp = 3 ,
    ecutwfc = 60.0 ,
    ecutrho = 360.0 ,
    nosym = .true.
 /
 &electrons
    electron_maxstep = 200 ,
    mixing_beta = 0.7 ,
!   use smaller conv_thr for better results ,
    conv_thr = 1.0d-14 ,
 /
 &ions
    ion_dynamics='bfgs' ,
 /
ATOMIC_SPECIES
Ga     69.72300  Ga.pbe-n-van.UPF
N      14.00674  N.pbe-rrkjus.UPF
Ru    101.07     Ru.pbe-n-van.UPF
ATOMIC_POSITIONS crystal
Ga    1.595000    0.920874    5.000000
Ga    1.595000    0.920874   15.378000
Ga    4.785000    0.920874    5.000000
Ga    4.785000    0.920874   15.378000
Ga    3.190000    3.683495    5.000000
Ga    3.190000    3.683495   15.378000
Ga    1.595000    4.604369    7.594500
Ga   -1.595000    4.604369    7.594500
Ga    0.000000    1.841748    7.594500
Ga    0.000000    3.683495    5.000000
Ga    0.000000    3.683495   15.378000
Ga    3.190000    1.841747    7.594500
Ga    1.595000    0.920874   10.189000
Ga    4.785000    0.920874   10.189000
Ga    3.190000    3.683495   10.189000
Ga    1.595000    4.604369   12.783500
Ga   -1.595000    4.604369   12.783500
Ga    0.000000    1.841748   12.783500
Ga    0.000000    3.683495   10.189000
Ga    3.190000    1.841747   12.783500
 N    1.595000    0.920874    6.945875
 N    4.785000    0.920874    6.945875
 N    3.190000    3.683495    6.945875
 N    1.595000    4.604369    9.540375
 N   -1.595000    4.604369    9.540375
 N    0.000000    1.841748    9.540375
 N    0.000000    3.683495    6.945875
 N    3.190000    1.841747    9.540375
 N    1.595000    0.920874   12.134875
 N    4.785000    0.920874   12.134875
 N    3.190000    3.683495   12.134875
 N    1.595000    4.604369   14.729375
 N   -1.595000    4.604369   14.729375
 N    0.000000    1.841748   14.729375
 N    0.000000    3.683495   12.134875
 N    3.190000    1.841747   14.729375
Ru    0.972220    1.561092   17.070420
Ru    3.676110    3.122184   23.492940
Ru    2.324165    3.902729   17.070420
Ru    2.324165    0.780546   23.492940
Ru   -0.379725    3.902729   17.070420
Ru    5.028055    0.780546   23.492940
Ru    3.676110    3.122184   19.211260
Ru    2.324165    0.780546   19.211260
Ru    5.028055    0.780546   19.211260
Ru    3.676110    1.561092   17.070420
Ru    0.972220    3.122184   23.492940
Ru    0.972220    3.122184   19.211260
Ru    0.972220    1.561092   21.352100
Ru    2.324165    3.902729   21.352100
Ru   -0.379725    3.902729   21.352100
Ru    3.676110    1.561092   21.352100
K_POINTS automatic
 4 4 2 0 0 0
