#************************************************************************************
#*                   Generated by cif2cell 2.0.0 2023-01-15 20:51                   *
#*  T. Bjorkman, Comp. Phys. Commun. 182, 1183-1186 (2011). Please cite generously. *
#*                                                                                  *
#*                              Data obtained from COD                              *
#*                                    None   ()                                     *
#*             Failed to get author information, No journal information             *
#************************************************************************************
&CONTROL
    calculation = "scf"
    max_seconds =  8.64000e+04
    restart_mode = 'from_scratch'
    verbosity = 'high'
    prefix = 'qa'
    outdir = 'out_qa'
    pseudo_dir  = "/home/shigeki/.burai/.pseudopot"
    title       = "HfSiO2N2_SCF"
    wf_collect  = .TRUE.
    wfcdir      = "./"
/
&SYSTEM
  ibrav = 0
!  A =    6.55340
  nat = 24
  ntyp = 4
  occupations  = "fixed"
  ecutwfc = tgt1
  ecutrho = tgt2
/
&electrons
  mixing_beta = 0.3
/
CELL_PARAMETERS {angstrom}
  6.553403000000000   0.000000000000000   0.000000000000000 
  0.000000000000000   6.553403000000000   0.000000000000000 
  0.000000000000000   0.000000000000000   5.964494000000000
K_POINTS {automatic}
2 2 2 1 1 1 
ATOMIC_SPECIES
   N   14.00650   N.pbe-n-kjpaw_psl.1.0.0.UPF
   O   15.99900   O.pbe-n-kjpaw_psl.1.0.0.UPF
  Hf  178.49000  Hf.pbe-spdfn-kjpaw_psl.1.0.0.UPF
  Si   28.08500  Si.pbe-n-kjpaw_psl.1.0.0.UPF
ATOMIC_POSITIONS {angstrom}
Hf   3.276701500000000   3.276701500000000   2.982247000000000 
Hf   0.000000000000000   3.276701500000000   4.473370500000001 
Hf   0.000000000000000   0.000000000000000   0.000000000000000 
Hf   3.276701500000000   0.000000000000000   1.491123500000000 
Si   3.276701500000000   0.000000000000000   4.473370500000001 
Si   0.000000000000000   0.000000000000000   2.982247000000000 
Si   0.000000000000000   3.276701500000000   1.491123500000000 
Si   3.276701500000000   3.276701500000000   0.000000000000000 
 O   5.340282910461000   0.000000000000000   1.903872449294000 
 O   3.276701500000000   5.340282910461000   3.394995949294000 
 O   0.000000000000001   5.340282910461000   4.060621550706000 
 O   2.063581410461000   0.000000000000000   5.551745050706001 
 O   0.000000000000000   2.063581410461000   0.412748949294000 
 O   4.489821589539000   3.276701500000000   4.886119449294000 
 O   3.276701500000000   2.063581410461000   1.078374550706000 
 O   1.213120089539000   3.276701500000000   2.569498050706000 
 N   3.276701500000000   1.213120089539000   3.394995949294000 
 N   1.213120089539000   0.000000000000000   1.903872449294000 
 N   4.489821589539000   0.000000000000000   5.551745050706001 
 N   0.000000000000000   1.213120089539000   4.060621550706000 
 N   2.063581410461001   3.276701500000000   4.886119449294000 
 N   0.000000000000000   4.489821589539000   0.412748949294000 
 N   5.340282910461000   3.276701500000000   2.569498050706000 
 N   3.276701500000000   4.489821589539000   1.078374550706000 
