&inputph
	tr2_ph=1.0d-14,
	prefix='qa',
	outdir='out_qa'
	fildyn='hfsio2n2.dyn',
	ldisp=.true.
	nq1 = 4
	nq2 = 4
	nq3 = 4
/

